(set-info :smt-lib-version 2.6)
(set-logic QF_BV)
(set-info :source |
 Patrice Godefroid, SAGE (systematic dynamic test generation)
 For more information: http://research.microsoft.com/en-us/um/people/pg/public_psfiles/ndss2008.pdf
|)
(set-info :category "industrial")
(set-info :status unsat)
(declare-fun T4_50 () (_ BitVec 32))
(declare-fun T1_50 () (_ BitVec 8))
(declare-fun T1_51 () (_ BitVec 8))
(declare-fun T1_52 () (_ BitVec 8))
(declare-fun T1_53 () (_ BitVec 8))
(assert (and true (= T4_50 (bvor (bvshl (bvor (bvshl (bvor (bvshl ((_ zero_extend 24) T1_53) (_ bv8 32)) ((_ zero_extend 24) T1_52)) (_ bv8 32)) ((_ zero_extend 24) T1_51)) (_ bv8 32)) ((_ zero_extend 24) T1_50))) (bvult T4_50 (_ bv0 32)) (bvult T4_50 (_ bv1 32))))
(check-sat)
(exit)
